100 4950
1 2 5
1 3 1
1 4 5
1 5 4
1 6 1
1 7 4
1 8 1
1 9 3
1 10 5
1 11 1
1 12 4
1 13 4
1 14 2
1 15 4
1 16 1
1 17 4
1 18 5
1 19 4
1 20 5
1 21 3
1 22 1
1 23 4
1 24 2
1 25 4
1 26 3
1 27 1
1 28 3
1 29 2
1 30 1
1 31 4
1 32 5
1 33 3
1 34 3
1 35 3
1 36 3
1 37 1
1 38 2
1 39 5
1 40 2
1 41 2
1 42 1
1 43 2
1 44 1
1 45 5
1 46 3
1 47 1
1 48 5
1 49 3
1 50 4
1 51 4
1 52 3
1 53 1
1 54 5
1 55 2
1 56 5
1 57 3
1 58 2
1 59 5
1 60 2
1 61 3
1 62 3
1 63 2
1 64 5
1 65 4
1 66 4
1 67 2
1 68 2
1 69 4
1 70 4
1 71 3
1 72 1
1 73 2
1 74 3
1 75 2
1 76 5
1 77 3
1 78 5
1 79 5
1 80 4
1 81 3
1 82 4
1 83 5
1 84 3
1 85 1
1 86 1
1 87 3
1 88 1
1 89 4
1 90 5
1 91 3
1 92 5
1 93 5
1 94 5
1 95 1
1 96 5
1 97 4
1 98 3
1 99 5
1 100 2
2 3 2
2 4 4
2 5 2
2 6 5
2 7 4
2 8 1
2 9 3
2 10 5
2 11 3
2 12 3
2 13 1
2 14 3
2 15 2
2 16 3
2 17 3
2 18 4
2 19 4
2 20 2
2 21 5
2 22 2
2 23 1
2 24 1
2 25 3
2 26 1
2 27 5
2 28 2
2 29 3
2 30 3
2 31 4
2 32 2
2 33 2
2 34 3
2 35 2
2 36 3
2 37 4
2 38 2
2 39 5
2 40 3
2 41 2
2 42 3
2 43 4
2 44 5
2 45 3
2 46 1
2 47 3
2 48 1
2 49 3
2 50 4
2 51 3
2 52 1
2 53 5
2 54 4
2 55 2
2 56 3
2 57 5
2 58 4
2 59 2
2 60 5
2 61 3
2 62 5
2 63 5
2 64 1
2 65 1
2 66 4
2 67 2
2 68 3
2 69 2
2 70 4
2 71 1
2 72 2
2 73 2
2 74 2
2 75 2
2 76 5
2 77 4
2 78 5
2 79 4
2 80 1
2 81 1
2 82 4
2 83 1
2 84 4
2 85 3
2 86 2
2 87 2
2 88 5
2 89 5
2 90 2
2 91 4
2 92 4
2 93 4
2 94 1
2 95 2
2 96 5
2 97 3
2 98 2
2 99 4
2 100 3
3 4 2
3 5 5
3 6 4
3 7 2
3 8 4
3 9 1
3 10 5
3 11 5
3 12 1
3 13 1
3 14 4
3 15 3
3 16 4
3 17 4
3 18 1
3 19 1
3 20 5
3 21 2
3 22 2
3 23 4
3 24 1
3 25 4
3 26 5
3 27 5
3 28 1
3 29 2
3 30 2
3 31 3
3 32 3
3 33 3
3 34 5
3 35 1
3 36 4
3 37 3
3 38 2
3 39 5
3 40 5
3 41 5
3 42 1
3 43 4
3 44 3
3 45 3
3 46 3
3 47 2
3 48 3
3 49 2
3 50 1
3 51 2
3 52 2
3 53 1
3 54 2
3 55 2
3 56 5
3 57 3
3 58 2
3 59 4
3 60 3
3 61 1
3 62 4
3 63 2
3 64 2
3 65 1
3 66 3
3 67 4
3 68 4
3 69 4
3 70 5
3 71 2
3 72 2
3 73 4
3 74 2
3 75 3
3 76 1
3 77 3
3 78 1
3 79 5
3 80 4
3 81 5
3 82 2
3 83 4
3 84 1
3 85 4
3 86 3
3 87 3
3 88 2
3 89 5
3 90 5
3 91 5
3 92 2
3 93 1
3 94 5
3 95 4
3 96 1
3 97 2
3 98 2
3 99 4
3 100 3
4 5 3
4 6 1
4 7 2
4 8 1
4 9 2
4 10 2
4 11 5
4 12 1
4 13 3
4 14 5
4 15 2
4 16 1
4 17 1
4 18 4
4 19 4
4 20 5
4 21 5
4 22 2
4 23 4
4 24 4
4 25 1
4 26 1
4 27 3
4 28 4
4 29 2
4 30 1
4 31 2
4 32 4
4 33 5
4 34 5
4 35 2
4 36 1
4 37 1
4 38 1
4 39 3
4 40 3
4 41 2
4 42 1
4 43 3
4 44 3
4 45 5
4 46 3
4 47 2
4 48 4
4 49 4
4 50 1
4 51 1
4 52 2
4 53 2
4 54 2
4 55 2
4 56 1
4 57 4
4 58 1
4 59 3
4 60 2
4 61 3
4 62 2
4 63 1
4 64 4
4 65 3
4 66 4
4 67 4
4 68 1
4 69 3
4 70 5
4 71 2
4 72 4
4 73 1
4 74 2
4 75 3
4 76 5
4 77 2
4 78 5
4 79 1
4 80 4
4 81 3
4 82 2
4 83 1
4 84 4
4 85 4
4 86 5
4 87 1
4 88 2
4 89 3
4 90 4
4 91 1
4 92 2
4 93 2
4 94 4
4 95 4
4 96 5
4 97 1
4 98 3
4 99 3
4 100 3
5 6 2
5 7 5
5 8 5
5 9 3
5 10 1
5 11 5
5 12 5
5 13 1
5 14 5
5 15 1
5 16 5
5 17 4
5 18 5
5 19 1
5 20 3
5 21 2
5 22 5
5 23 2
5 24 2
5 25 5
5 26 2
5 27 3
5 28 3
5 29 3
5 30 1
5 31 3
5 32 4
5 33 1
5 34 4
5 35 4
5 36 2
5 37 4
5 38 5
5 39 5
5 40 3
5 41 4
5 42 4
5 43 3
5 44 2
5 45 3
5 46 2
5 47 5
5 48 5
5 49 4
5 50 5
5 51 1
5 52 2
5 53 1
5 54 3
5 55 2
5 56 4
5 57 5
5 58 4
5 59 1
5 60 2
5 61 5
5 62 5
5 63 4
5 64 1
5 65 1
5 66 2
5 67 2
5 68 1
5 69 3
5 70 1
5 71 3
5 72 4
5 73 2
5 74 5
5 75 3
5 76 1
5 77 3
5 78 2
5 79 4
5 80 2
5 81 1
5 82 4
5 83 3
5 84 1
5 85 4
5 86 3
5 87 5
5 88 1
5 89 2
5 90 5
5 91 5
5 92 1
5 93 1
5 94 5
5 95 2
5 96 4
5 97 2
5 98 2
5 99 3
5 100 5
6 7 5
6 8 2
6 9 5
6 10 1
6 11 3
6 12 3
6 13 5
6 14 2
6 15 3
6 16 5
6 17 1
6 18 5
6 19 5
6 20 1
6 21 5
6 22 3
6 23 5
6 24 4
6 25 3
6 26 2
6 27 3
6 28 1
6 29 4
6 30 5
6 31 5
6 32 2
6 33 4
6 34 3
6 35 3
6 36 2
6 37 3
6 38 1
6 39 4
6 40 5
6 41 2
6 42 2
6 43 5
6 44 2
6 45 1
6 46 3
6 47 2
6 48 3
6 49 3
6 50 5
6 51 4
6 52 4
6 53 1
6 54 3
6 55 5
6 56 1
6 57 2
6 58 3
6 59 1
6 60 4
6 61 3
6 62 3
6 63 5
6 64 3
6 65 5
6 66 2
6 67 3
6 68 5
6 69 1
6 70 1
6 71 5
6 72 1
6 73 4
6 74 1
6 75 2
6 76 2
6 77 1
6 78 4
6 79 5
6 80 2
6 81 1
6 82 5
6 83 3
6 84 3
6 85 3
6 86 3
6 87 4
6 88 3
6 89 5
6 90 5
6 91 1
6 92 1
6 93 5
6 94 1
6 95 4
6 96 2
6 97 5
6 98 3
6 99 4
6 100 4
7 8 2
7 9 2
7 10 4
7 11 3
7 12 5
7 13 1
7 14 3
7 15 3
7 16 1
7 17 4
7 18 4
7 19 5
7 20 2
7 21 3
7 22 4
7 23 3
7 24 5
7 25 1
7 26 2
7 27 3
7 28 4
7 29 5
7 30 4
7 31 2
7 32 4
7 33 5
7 34 5
7 35 2
7 36 5
7 37 1
7 38 4
7 39 2
7 40 4
7 41 5
7 42 1
7 43 2
7 44 5
7 45 1
7 46 2
7 47 2
7 48 2
7 49 4
7 50 2
7 51 4
7 52 3
7 53 1
7 54 3
7 55 5
7 56 4
7 57 3
7 58 4
7 59 1
7 60 1
7 61 3
7 62 2
7 63 5
7 64 5
7 65 3
7 66 2
7 67 4
7 68 4
7 69 2
7 70 5
7 71 2
7 72 5
7 73 4
7 74 4
7 75 1
7 76 3
7 77 2
7 78 3
7 79 3
7 80 3
7 81 3
7 82 5
7 83 2
7 84 4
7 85 5
7 86 1
7 87 4
7 88 5
7 89 5
7 90 3
7 91 5
7 92 1
7 93 2
7 94 3
7 95 3
7 96 2
7 97 1
7 98 4
7 99 5
7 100 4
8 9 5
8 10 2
8 11 3
8 12 1
8 13 3
8 14 5
8 15 5
8 16 2
8 17 4
8 18 3
8 19 1
8 20 4
8 21 2
8 22 3
8 23 1
8 24 1
8 25 3
8 26 5
8 27 5
8 28 3
8 29 2
8 30 3
8 31 1
8 32 1
8 33 1
8 34 2
8 35 4
8 36 2
8 37 2
8 38 4
8 39 1
8 40 3
8 41 4
8 42 5
8 43 4
8 44 5
8 45 2
8 46 5
8 47 4
8 48 1
8 49 3
8 50 4
8 51 5
8 52 5
8 53 4
8 54 3
8 55 4
8 56 1
8 57 1
8 58 3
8 59 4
8 60 2
8 61 3
8 62 2
8 63 2
8 64 4
8 65 2
8 66 4
8 67 5
8 68 2
8 69 3
8 70 1
8 71 1
8 72 2
8 73 1
8 74 4
8 75 2
8 76 1
8 77 2
8 78 4
8 79 5
8 80 1
8 81 4
8 82 4
8 83 2
8 84 3
8 85 3
8 86 4
8 87 2
8 88 4
8 89 2
8 90 3
8 91 1
8 92 1
8 93 1
8 94 1
8 95 3
8 96 5
8 97 3
8 98 2
8 99 4
8 100 1
9 10 3
9 11 3
9 12 3
9 13 4
9 14 2
9 15 2
9 16 1
9 17 2
9 18 4
9 19 3
9 20 2
9 21 3
9 22 1
9 23 2
9 24 1
9 25 1
9 26 1
9 27 1
9 28 4
9 29 5
9 30 2
9 31 3
9 32 3
9 33 2
9 34 1
9 35 3
9 36 3
9 37 5
9 38 1
9 39 2
9 40 4
9 41 4
9 42 2
9 43 3
9 44 3
9 45 3
9 46 4
9 47 1
9 48 3
9 49 1
9 50 1
9 51 5
9 52 1
9 53 1
9 54 4
9 55 1
9 56 4
9 57 5
9 58 2
9 59 2
9 60 5
9 61 3
9 62 4
9 63 4
9 64 1
9 65 5
9 66 2
9 67 4
9 68 5
9 69 4
9 70 2
9 71 4
9 72 3
9 73 5
9 74 2
9 75 4
9 76 1
9 77 4
9 78 4
9 79 3
9 80 3
9 81 3
9 82 1
9 83 5
9 84 2
9 85 4
9 86 5
9 87 3
9 88 5
9 89 4
9 90 4
9 91 1
9 92 5
9 93 1
9 94 1
9 95 4
9 96 1
9 97 1
9 98 4
9 99 2
9 100 1
10 11 3
10 12 1
10 13 3
10 14 3
10 15 3
10 16 2
10 17 5
10 18 2
10 19 1
10 20 4
10 21 1
10 22 1
10 23 2
10 24 4
10 25 4
10 26 1
10 27 1
10 28 4
10 29 2
10 30 5
10 31 4
10 32 2
10 33 3
10 34 2
10 35 4
10 36 4
10 37 5
10 38 5
10 39 5
10 40 1
10 41 5
10 42 5
10 43 4
10 44 2
10 45 5
10 46 1
10 47 2
10 48 5
10 49 4
10 50 2
10 51 3
10 52 3
10 53 2
10 54 5
10 55 3
10 56 4
10 57 5
10 58 2
10 59 2
10 60 1
10 61 3
10 62 5
10 63 4
10 64 2
10 65 2
10 66 5
10 67 2
10 68 5
10 69 5
10 70 2
10 71 1
10 72 4
10 73 2
10 74 5
10 75 5
10 76 1
10 77 3
10 78 1
10 79 4
10 80 1
10 81 1
10 82 4
10 83 3
10 84 5
10 85 3
10 86 5
10 87 4
10 88 4
10 89 4
10 90 2
10 91 4
10 92 2
10 93 4
10 94 5
10 95 2
10 96 5
10 97 1
10 98 3
10 99 1
10 100 2
11 12 3
11 13 5
11 14 5
11 15 4
11 16 1
11 17 4
11 18 5
11 19 1
11 20 2
11 21 4
11 22 5
11 23 3
11 24 3
11 25 4
11 26 1
11 27 1
11 28 1
11 29 4
11 30 5
11 31 5
11 32 4
11 33 2
11 34 2
11 35 1
11 36 1
11 37 2
11 38 1
11 39 4
11 40 3
11 41 2
11 42 3
11 43 2
11 44 5
11 45 3
11 46 2
11 47 4
11 48 3
11 49 4
11 50 1
11 51 1
11 52 3
11 53 5
11 54 1
11 55 5
11 56 2
11 57 2
11 58 3
11 59 2
11 60 4
11 61 1
11 62 1
11 63 1
11 64 1
11 65 4
11 66 4
11 67 4
11 68 3
11 69 3
11 70 1
11 71 3
11 72 2
11 73 2
11 74 4
11 75 1
11 76 3
11 77 3
11 78 4
11 79 3
11 80 4
11 81 2
11 82 5
11 83 5
11 84 3
11 85 4
11 86 2
11 87 5
11 88 3
11 89 5
11 90 3
11 91 5
11 92 2
11 93 2
11 94 4
11 95 1
11 96 1
11 97 1
11 98 4
11 99 1
11 100 3
12 13 2
12 14 2
12 15 2
12 16 1
12 17 3
12 18 1
12 19 4
12 20 1
12 21 2
12 22 5
12 23 3
12 24 5
12 25 3
12 26 1
12 27 3
12 28 2
12 29 5
12 30 4
12 31 5
12 32 3
12 33 5
12 34 4
12 35 1
12 36 5
12 37 5
12 38 3
12 39 4
12 40 5
12 41 3
12 42 3
12 43 5
12 44 1
12 45 5
12 46 4
12 47 4
12 48 2
12 49 1
12 50 4
12 51 3
12 52 1
12 53 5
12 54 3
12 55 1
12 56 1
12 57 2
12 58 2
12 59 5
12 60 2
12 61 4
12 62 3
12 63 1
12 64 3
12 65 1
12 66 5
12 67 5
12 68 2
12 69 1
12 70 3
12 71 2
12 72 5
12 73 5
12 74 2
12 75 4
12 76 5
12 77 4
12 78 4
12 79 2
12 80 2
12 81 4
12 82 5
12 83 4
12 84 3
12 85 2
12 86 5
12 87 4
12 88 2
12 89 3
12 90 2
12 91 5
12 92 3
12 93 1
12 94 5
12 95 1
12 96 5
12 97 1
12 98 3
12 99 2
12 100 4
13 14 3
13 15 1
13 16 5
13 17 3
13 18 5
13 19 3
13 20 5
13 21 2
13 22 4
13 23 4
13 24 5
13 25 4
13 26 4
13 27 5
13 28 1
13 29 3
13 30 1
13 31 1
13 32 3
13 33 3
13 34 4
13 35 2
13 36 1
13 37 5
13 38 5
13 39 5
13 40 2
13 41 1
13 42 4
13 43 4
13 44 5
13 45 1
13 46 1
13 47 4
13 48 4
13 49 5
13 50 3
13 51 2
13 52 2
13 53 1
13 54 3
13 55 4
13 56 5
13 57 5
13 58 1
13 59 3
13 60 3
13 61 3
13 62 2
13 63 1
13 64 4
13 65 2
13 66 3
13 67 4
13 68 3
13 69 1
13 70 2
13 71 2
13 72 5
13 73 3
13 74 1
13 75 4
13 76 5
13 77 2
13 78 5
13 79 2
13 80 1
13 81 4
13 82 5
13 83 1
13 84 5
13 85 1
13 86 1
13 87 1
13 88 2
13 89 3
13 90 2
13 91 2
13 92 5
13 93 2
13 94 3
13 95 1
13 96 5
13 97 1
13 98 5
13 99 2
13 100 4
14 15 1
14 16 1
14 17 4
14 18 3
14 19 1
14 20 2
14 21 1
14 22 3
14 23 4
14 24 1
14 25 1
14 26 5
14 27 3
14 28 5
14 29 5
14 30 5
14 31 1
14 32 1
14 33 3
14 34 2
14 35 2
14 36 1
14 37 1
14 38 3
14 39 5
14 40 5
14 41 3
14 42 1
14 43 5
14 44 5
14 45 5
14 46 3
14 47 4
14 48 5
14 49 1
14 50 4
14 51 1
14 52 5
14 53 4
14 54 4
14 55 5
14 56 3
14 57 5
14 58 5
14 59 4
14 60 5
14 61 5
14 62 2
14 63 2
14 64 1
14 65 5
14 66 2
14 67 1
14 68 3
14 69 2
14 70 5
14 71 1
14 72 2
14 73 4
14 74 4
14 75 4
14 76 2
14 77 2
14 78 3
14 79 4
14 80 3
14 81 5
14 82 1
14 83 5
14 84 4
14 85 3
14 86 4
14 87 4
14 88 5
14 89 1
14 90 1
14 91 3
14 92 5
14 93 4
14 94 4
14 95 1
14 96 3
14 97 2
14 98 3
14 99 5
14 100 5
15 16 4
15 17 3
15 18 4
15 19 2
15 20 2
15 21 3
15 22 4
15 23 4
15 24 3
15 25 4
15 26 1
15 27 5
15 28 1
15 29 5
15 30 5
15 31 5
15 32 4
15 33 4
15 34 3
15 35 1
15 36 1
15 37 3
15 38 2
15 39 2
15 40 1
15 41 5
15 42 5
15 43 3
15 44 2
15 45 2
15 46 3
15 47 5
15 48 3
15 49 4
15 50 3
15 51 1
15 52 3
15 53 1
15 54 3
15 55 4
15 56 4
15 57 4
15 58 3
15 59 2
15 60 5
15 61 3
15 62 2
15 63 5
15 64 1
15 65 4
15 66 1
15 67 5
15 68 1
15 69 1
15 70 3
15 71 1
15 72 5
15 73 1
15 74 5
15 75 5
15 76 2
15 77 5
15 78 5
15 79 3
15 80 4
15 81 3
15 82 5
15 83 3
15 84 5
15 85 4
15 86 5
15 87 3
15 88 5
15 89 3
15 90 5
15 91 3
15 92 3
15 93 1
15 94 5
15 95 1
15 96 2
15 97 3
15 98 3
15 99 5
15 100 1
16 17 1
16 18 2
16 19 5
16 20 4
16 21 5
16 22 5
16 23 2
16 24 4
16 25 5
16 26 1
16 27 3
16 28 3
16 29 2
16 30 5
16 31 5
16 32 1
16 33 5
16 34 1
16 35 3
16 36 1
16 37 2
16 38 5
16 39 1
16 40 4
16 41 4
16 42 1
16 43 2
16 44 2
16 45 5
16 46 5
16 47 3
16 48 4
16 49 2
16 50 3
16 51 1
16 52 2
16 53 2
16 54 1
16 55 4
16 56 4
16 57 1
16 58 3
16 59 5
16 60 3
16 61 5
16 62 1
16 63 2
16 64 1
16 65 3
16 66 2
16 67 1
16 68 5
16 69 1
16 70 3
16 71 4
16 72 4
16 73 5
16 74 1
16 75 5
16 76 1
16 77 5
16 78 1
16 79 2
16 80 5
16 81 1
16 82 1
16 83 3
16 84 2
16 85 2
16 86 3
16 87 2
16 88 2
16 89 1
16 90 3
16 91 4
16 92 5
16 93 5
16 94 2
16 95 5
16 96 2
16 97 5
16 98 3
16 99 4
16 100 4
17 18 2
17 19 4
17 20 2
17 21 2
17 22 1
17 23 4
17 24 2
17 25 1
17 26 4
17 27 4
17 28 3
17 29 1
17 30 4
17 31 5
17 32 1
17 33 2
17 34 1
17 35 2
17 36 2
17 37 2
17 38 5
17 39 5
17 40 4
17 41 2
17 42 4
17 43 3
17 44 2
17 45 5
17 46 2
17 47 3
17 48 3
17 49 4
17 50 3
17 51 2
17 52 5
17 53 5
17 54 1
17 55 3
17 56 4
17 57 4
17 58 4
17 59 1
17 60 5
17 61 1
17 62 2
17 63 5
17 64 1
17 65 4
17 66 5
17 67 3
17 68 4
17 69 5
17 70 3
17 71 1
17 72 4
17 73 5
17 74 2
17 75 4
17 76 2
17 77 5
17 78 2
17 79 3
17 80 5
17 81 1
17 82 5
17 83 5
17 84 5
17 85 5
17 86 5
17 87 5
17 88 1
17 89 1
17 90 4
17 91 2
17 92 2
17 93 5
17 94 2
17 95 1
17 96 2
17 97 5
17 98 5
17 99 5
17 100 3
18 19 3
18 20 2
18 21 3
18 22 1
18 23 1
18 24 1
18 25 3
18 26 5
18 27 4
18 28 4
18 29 3
18 30 1
18 31 2
18 32 3
18 33 2
18 34 5
18 35 4
18 36 1
18 37 3
18 38 2
18 39 1
18 40 5
18 41 2
18 42 1
18 43 1
18 44 2
18 45 4
18 46 4
18 47 5
18 48 4
18 49 3
18 50 1
18 51 5
18 52 1
18 53 5
18 54 1
18 55 3
18 56 3
18 57 3
18 58 2
18 59 1
18 60 2
18 61 1
18 62 3
18 63 4
18 64 2
18 65 5
18 66 1
18 67 2
18 68 2
18 69 3
18 70 5
18 71 5
18 72 3
18 73 5
18 74 4
18 75 4
18 76 4
18 77 3
18 78 1
18 79 2
18 80 1
18 81 1
18 82 3
18 83 1
18 84 5
18 85 3
18 86 5
18 87 1
18 88 5
18 89 2
18 90 5
18 91 2
18 92 4
18 93 5
18 94 3
18 95 3
18 96 4
18 97 2
18 98 3
18 99 5
18 100 3
19 20 5
19 21 4
19 22 5
19 23 2
19 24 1
19 25 5
19 26 3
19 27 4
19 28 4
19 29 4
19 30 3
19 31 4
19 32 4
19 33 3
19 34 1
19 35 1
19 36 2
19 37 5
19 38 4
19 39 3
19 40 5
19 41 5
19 42 4
19 43 5
19 44 3
19 45 4
19 46 5
19 47 3
19 48 5
19 49 1
19 50 4
19 51 5
19 52 4
19 53 4
19 54 1
19 55 3
19 56 3
19 57 1
19 58 3
19 59 2
19 60 2
19 61 4
19 62 3
19 63 2
19 64 5
19 65 5
19 66 1
19 67 5
19 68 3
19 69 2
19 70 3
19 71 3
19 72 4
19 73 4
19 74 2
19 75 1
19 76 3
19 77 4
19 78 5
19 79 1
19 80 5
19 81 3
19 82 1
19 83 2
19 84 2
19 85 2
19 86 3
19 87 2
19 88 2
19 89 3
19 90 4
19 91 4
19 92 3
19 93 3
19 94 5
19 95 2
19 96 3
19 97 1
19 98 1
19 99 4
19 100 4
20 21 3
20 22 1
20 23 1
20 24 5
20 25 4
20 26 5
20 27 4
20 28 2
20 29 3
20 30 5
20 31 2
20 32 2
20 33 2
20 34 3
20 35 1
20 36 4
20 37 4
20 38 3
20 39 5
20 40 2
20 41 1
20 42 1
20 43 5
20 44 1
20 45 3
20 46 1
20 47 1
20 48 1
20 49 5
20 50 4
20 51 3
20 52 1
20 53 3
20 54 5
20 55 3
20 56 1
20 57 3
20 58 5
20 59 5
20 60 2
20 61 1
20 62 4
20 63 2
20 64 5
20 65 2
20 66 4
20 67 3
20 68 5
20 69 4
20 70 1
20 71 5
20 72 1
20 73 1
20 74 3
20 75 3
20 76 4
20 77 5
20 78 1
20 79 3
20 80 3
20 81 5
20 82 2
20 83 2
20 84 4
20 85 3
20 86 1
20 87 2
20 88 3
20 89 1
20 90 5
20 91 3
20 92 4
20 93 3
20 94 5
20 95 3
20 96 3
20 97 5
20 98 5
20 99 2
20 100 5
21 22 1
21 23 3
21 24 5
21 25 2
21 26 3
21 27 2
21 28 5
21 29 5
21 30 1
21 31 3
21 32 2
21 33 1
21 34 3
21 35 3
21 36 2
21 37 5
21 38 1
21 39 5
21 40 5
21 41 3
21 42 5
21 43 4
21 44 1
21 45 4
21 46 3
21 47 4
21 48 5
21 49 1
21 50 5
21 51 5
21 52 1
21 53 3
21 54 3
21 55 5
21 56 4
21 57 1
21 58 5
21 59 1
21 60 5
21 61 1
21 62 5
21 63 1
21 64 1
21 65 5
21 66 5
21 67 2
21 68 2
21 69 1
21 70 3
21 71 4
21 72 4
21 73 3
21 74 2
21 75 3
21 76 4
21 77 4
21 78 1
21 79 4
21 80 2
21 81 3
21 82 4
21 83 3
21 84 2
21 85 5
21 86 1
21 87 3
21 88 3
21 89 1
21 90 1
21 91 4
21 92 1
21 93 1
21 94 3
21 95 1
21 96 5
21 97 3
21 98 3
21 99 5
21 100 5
22 23 4
22 24 5
22 25 1
22 26 2
22 27 3
22 28 4
22 29 5
22 30 4
22 31 4
22 32 1
22 33 2
22 34 5
22 35 5
22 36 5
22 37 3
22 38 1
22 39 3
22 40 2
22 41 3
22 42 5
22 43 1
22 44 2
22 45 1
22 46 3
22 47 4
22 48 1
22 49 3
22 50 5
22 51 2
22 52 4
22 53 4
22 54 4
22 55 3
22 56 3
22 57 2
22 58 3
22 59 2
22 60 2
22 61 2
22 62 3
22 63 3
22 64 1
22 65 4
22 66 1
22 67 1
22 68 5
22 69 4
22 70 3
22 71 4
22 72 4
22 73 2
22 74 1
22 75 2
22 76 1
22 77 4
22 78 3
22 79 1
22 80 4
22 81 3
22 82 3
22 83 3
22 84 2
22 85 1
22 86 1
22 87 2
22 88 1
22 89 1
22 90 4
22 91 1
22 92 1
22 93 3
22 94 5
22 95 4
22 96 2
22 97 5
22 98 2
22 99 4
22 100 4
23 24 2
23 25 2
23 26 3
23 27 3
23 28 3
23 29 1
23 30 1
23 31 1
23 32 3
23 33 3
23 34 3
23 35 3
23 36 2
23 37 1
23 38 2
23 39 1
23 40 2
23 41 2
23 42 4
23 43 1
23 44 4
23 45 2
23 46 1
23 47 5
23 48 1
23 49 5
23 50 4
23 51 4
23 52 2
23 53 2
23 54 2
23 55 5
23 56 5
23 57 4
23 58 2
23 59 2
23 60 5
23 61 2
23 62 4
23 63 4
23 64 4
23 65 1
23 66 2
23 67 2
23 68 4
23 69 4
23 70 1
23 71 1
23 72 1
23 73 3
23 74 1
23 75 3
23 76 5
23 77 2
23 78 3
23 79 5
23 80 1
23 81 4
23 82 5
23 83 4
23 84 3
23 85 5
23 86 4
23 87 2
23 88 3
23 89 3
23 90 5
23 91 2
23 92 5
23 93 4
23 94 1
23 95 2
23 96 2
23 97 1
23 98 4
23 99 3
23 100 4
24 25 2
24 26 3
24 27 1
24 28 4
24 29 3
24 30 4
24 31 1
24 32 5
24 33 4
24 34 3
24 35 2
24 36 1
24 37 3
24 38 5
24 39 4
24 40 4
24 41 3
24 42 1
24 43 5
24 44 5
24 45 1
24 46 3
24 47 4
24 48 2
24 49 5
24 50 2
24 51 5
24 52 4
24 53 4
24 54 3
24 55 3
24 56 4
24 57 3
24 58 3
24 59 5
24 60 4
24 61 5
24 62 2
24 63 1
24 64 3
24 65 2
24 66 2
24 67 4
24 68 2
24 69 5
24 70 5
24 71 5
24 72 2
24 73 1
24 74 3
24 75 1
24 76 4
24 77 5
24 78 2
24 79 3
24 80 4
24 81 5
24 82 5
24 83 5
24 84 3
24 85 1
24 86 3
24 87 4
24 88 2
24 89 3
24 90 2
24 91 1
24 92 1
24 93 3
24 94 5
24 95 5
24 96 5
24 97 3
24 98 5
24 99 3
24 100 1
25 26 1
25 27 4
25 28 1
25 29 1
25 30 4
25 31 5
25 32 4
25 33 1
25 34 2
25 35 4
25 36 4
25 37 1
25 38 4
25 39 2
25 40 5
25 41 5
25 42 3
25 43 2
25 44 1
25 45 5
25 46 3
25 47 5
25 48 4
25 49 3
25 50 1
25 51 3
25 52 5
25 53 3
25 54 5
25 55 5
25 56 2
25 57 2
25 58 3
25 59 5
25 60 2
25 61 4
25 62 2
25 63 2
25 64 4
25 65 3
25 66 4
25 67 1
25 68 1
25 69 1
25 70 4
25 71 3
25 72 3
25 73 4
25 74 1
25 75 2
25 76 1
25 77 3
25 78 4
25 79 1
25 80 3
25 81 3
25 82 1
25 83 5
25 84 5
25 85 3
25 86 3
25 87 2
25 88 2
25 89 2
25 90 5
25 91 5
25 92 1
25 93 3
25 94 2
25 95 4
25 96 1
25 97 4
25 98 5
25 99 1
25 100 3
26 27 4
26 28 2
26 29 5
26 30 2
26 31 1
26 32 5
26 33 2
26 34 4
26 35 1
26 36 1
26 37 3
26 38 3
26 39 5
26 40 2
26 41 2
26 42 5
26 43 4
26 44 4
26 45 4
26 46 2
26 47 5
26 48 1
26 49 4
26 50 3
26 51 2
26 52 5
26 53 4
26 54 2
26 55 1
26 56 1
26 57 3
26 58 4
26 59 2
26 60 1
26 61 3
26 62 5
26 63 4
26 64 1
26 65 3
26 66 4
26 67 4
26 68 2
26 69 4
26 70 5
26 71 5
26 72 5
26 73 1
26 74 5
26 75 5
26 76 4
26 77 3
26 78 3
26 79 1
26 80 1
26 81 4
26 82 2
26 83 4
26 84 3
26 85 3
26 86 5
26 87 3
26 88 5
26 89 2
26 90 5
26 91 5
26 92 3
26 93 3
26 94 4
26 95 1
26 96 3
26 97 5
26 98 2
26 99 3
26 100 3
27 28 3
27 29 1
27 30 5
27 31 5
27 32 4
27 33 3
27 34 4
27 35 2
27 36 4
27 37 3
27 38 2
27 39 5
27 40 2
27 41 2
27 42 4
27 43 5
27 44 3
27 45 3
27 46 2
27 47 3
27 48 1
27 49 2
27 50 2
27 51 2
27 52 1
27 53 1
27 54 4
27 55 1
27 56 5
27 57 2
27 58 5
27 59 4
27 60 2
27 61 3
27 62 4
27 63 2
27 64 1
27 65 1
27 66 5
27 67 3
27 68 2
27 69 2
27 70 5
27 71 5
27 72 2
27 73 2
27 74 1
27 75 3
27 76 5
27 77 2
27 78 1
27 79 5
27 80 3
27 81 3
27 82 5
27 83 1
27 84 1
27 85 1
27 86 4
27 87 3
27 88 1
27 89 5
27 90 3
27 91 5
27 92 4
27 93 4
27 94 4
27 95 5
27 96 1
27 97 3
27 98 3
27 99 1
27 100 1
28 29 3
28 30 4
28 31 5
28 32 4
28 33 2
28 34 4
28 35 3
28 36 5
28 37 3
28 38 4
28 39 3
28 40 3
28 41 4
28 42 4
28 43 5
28 44 5
28 45 3
28 46 3
28 47 2
28 48 2
28 49 1
28 50 2
28 51 3
28 52 5
28 53 5
28 54 5
28 55 5
28 56 1
28 57 5
28 58 1
28 59 4
28 60 2
28 61 2
28 62 1
28 63 2
28 64 4
28 65 4
28 66 2
28 67 5
28 68 4
28 69 2
28 70 2
28 71 1
28 72 5
28 73 1
28 74 5
28 75 5
28 76 5
28 77 3
28 78 2
28 79 2
28 80 3
28 81 2
28 82 3
28 83 2
28 84 3
28 85 2
28 86 1
28 87 2
28 88 5
28 89 5
28 90 2
28 91 1
28 92 4
28 93 1
28 94 3
28 95 3
28 96 4
28 97 4
28 98 3
28 99 1
28 100 5
29 30 3
29 31 4
29 32 1
29 33 4
29 34 3
29 35 1
29 36 3
29 37 4
29 38 3
29 39 3
29 40 4
29 41 2
29 42 3
29 43 1
29 44 4
29 45 4
29 46 2
29 47 1
29 48 1
29 49 3
29 50 5
29 51 3
29 52 5
29 53 2
29 54 3
29 55 1
29 56 3
29 57 5
29 58 3
29 59 3
29 60 4
29 61 1
29 62 1
29 63 5
29 64 4
29 65 4
29 66 5
29 67 3
29 68 4
29 69 5
29 70 5
29 71 1
29 72 1
29 73 2
29 74 3
29 75 5
29 76 1
29 77 2
29 78 4
29 79 1
29 80 2
29 81 3
29 82 2
29 83 3
29 84 2
29 85 1
29 86 1
29 87 3
29 88 1
29 89 4
29 90 1
29 91 1
29 92 1
29 93 5
29 94 1
29 95 1
29 96 2
29 97 1
29 98 2
29 99 2
29 100 2
30 31 1
30 32 4
30 33 3
30 34 3
30 35 3
30 36 3
30 37 5
30 38 5
30 39 4
30 40 2
30 41 3
30 42 3
30 43 1
30 44 4
30 45 2
30 46 1
30 47 2
30 48 1
30 49 2
30 50 5
30 51 4
30 52 2
30 53 4
30 54 2
30 55 5
30 56 1
30 57 1
30 58 5
30 59 1
30 60 5
30 61 3
30 62 5
30 63 5
30 64 3
30 65 2
30 66 4
30 67 4
30 68 4
30 69 5
30 70 1
30 71 1
30 72 2
30 73 1
30 74 1
30 75 1
30 76 5
30 77 1
30 78 4
30 79 3
30 80 4
30 81 1
30 82 2
30 83 3
30 84 5
30 85 5
30 86 2
30 87 3
30 88 4
30 89 2
30 90 3
30 91 1
30 92 3
30 93 2
30 94 4
30 95 5
30 96 1
30 97 1
30 98 2
30 99 5
30 100 5
31 32 1
31 33 5
31 34 4
31 35 4
31 36 1
31 37 1
31 38 2
31 39 3
31 40 1
31 41 4
31 42 3
31 43 5
31 44 4
31 45 2
31 46 5
31 47 2
31 48 1
31 49 4
31 50 5
31 51 3
31 52 2
31 53 4
31 54 3
31 55 1
31 56 1
31 57 1
31 58 4
31 59 2
31 60 4
31 61 3
31 62 1
31 63 4
31 64 1
31 65 3
31 66 3
31 67 3
31 68 2
31 69 5
31 70 4
31 71 3
31 72 3
31 73 5
31 74 2
31 75 2
31 76 3
31 77 4
31 78 2
31 79 2
31 80 2
31 81 3
31 82 1
31 83 5
31 84 5
31 85 5
31 86 1
31 87 1
31 88 2
31 89 4
31 90 5
31 91 3
31 92 1
31 93 5
31 94 1
31 95 5
31 96 1
31 97 5
31 98 5
31 99 2
31 100 1
32 33 1
32 34 1
32 35 4
32 36 5
32 37 4
32 38 3
32 39 4
32 40 5
32 41 5
32 42 2
32 43 5
32 44 1
32 45 1
32 46 4
32 47 4
32 48 4
32 49 5
32 50 4
32 51 1
32 52 1
32 53 5
32 54 1
32 55 1
32 56 3
32 57 4
32 58 2
32 59 1
32 60 3
32 61 4
32 62 2
32 63 1
32 64 3
32 65 4
32 66 5
32 67 1
32 68 1
32 69 2
32 70 4
32 71 4
32 72 4
32 73 5
32 74 2
32 75 3
32 76 1
32 77 5
32 78 2
32 79 2
32 80 4
32 81 4
32 82 5
32 83 3
32 84 5
32 85 2
32 86 3
32 87 1
32 88 5
32 89 4
32 90 2
32 91 2
32 92 1
32 93 4
32 94 3
32 95 5
32 96 1
32 97 1
32 98 2
32 99 3
32 100 1
33 34 1
33 35 5
33 36 2
33 37 4
33 38 5
33 39 4
33 40 2
33 41 4
33 42 3
33 43 5
33 44 2
33 45 2
33 46 4
33 47 4
33 48 2
33 49 5
33 50 3
33 51 5
33 52 5
33 53 4
33 54 3
33 55 4
33 56 2
33 57 5
33 58 3
33 59 4
33 60 4
33 61 5
33 62 1
33 63 4
33 64 5
33 65 4
33 66 5
33 67 4
33 68 2
33 69 2
33 70 1
33 71 2
33 72 2
33 73 5
33 74 4
33 75 1
33 76 5
33 77 2
33 78 1
33 79 5
33 80 3
33 81 1
33 82 1
33 83 2
33 84 5
33 85 4
33 86 5
33 87 1
33 88 3
33 89 1
33 90 2
33 91 4
33 92 4
33 93 5
33 94 4
33 95 5
33 96 4
33 97 5
33 98 2
33 99 1
33 100 3
34 35 3
34 36 4
34 37 2
34 38 3
34 39 5
34 40 2
34 41 2
34 42 5
34 43 1
34 44 2
34 45 1
34 46 3
34 47 3
34 48 1
34 49 1
34 50 5
34 51 5
34 52 1
34 53 2
34 54 4
34 55 2
34 56 5
34 57 3
34 58 5
34 59 5
34 60 2
34 61 1
34 62 2
34 63 2
34 64 4
34 65 4
34 66 2
34 67 1
34 68 2
34 69 2
34 70 4
34 71 4
34 72 5
34 73 1
34 74 4
34 75 3
34 76 1
34 77 1
34 78 5
34 79 1
34 80 4
34 81 4
34 82 5
34 83 4
34 84 4
34 85 3
34 86 5
34 87 4
34 88 5
34 89 3
34 90 3
34 91 5
34 92 5
34 93 5
34 94 4
34 95 2
34 96 3
34 97 3
34 98 5
34 99 5
34 100 1
35 36 1
35 37 1
35 38 4
35 39 3
35 40 5
35 41 1
35 42 1
35 43 4
35 44 1
35 45 4
35 46 1
35 47 5
35 48 4
35 49 1
35 50 4
35 51 2
35 52 4
35 53 1
35 54 2
35 55 2
35 56 5
35 57 4
35 58 2
35 59 3
35 60 1
35 61 1
35 62 2
35 63 1
35 64 3
35 65 2
35 66 2
35 67 5
35 68 5
35 69 1
35 70 5
35 71 4
35 72 1
35 73 1
35 74 2
35 75 1
35 76 1
35 77 5
35 78 2
35 79 3
35 80 1
35 81 5
35 82 4
35 83 2
35 84 2
35 85 1
35 86 1
35 87 3
35 88 1
35 89 1
35 90 1
35 91 2
35 92 2
35 93 3
35 94 2
35 95 3
35 96 2
35 97 1
35 98 4
35 99 3
35 100 5
36 37 3
36 38 5
36 39 1
36 40 1
36 41 4
36 42 4
36 43 1
36 44 2
36 45 4
36 46 1
36 47 1
36 48 1
36 49 1
36 50 2
36 51 5
36 52 4
36 53 5
36 54 4
36 55 1
36 56 1
36 57 5
36 58 1
36 59 5
36 60 1
36 61 5
36 62 1
36 63 3
36 64 4
36 65 2
36 66 1
36 67 1
36 68 1
36 69 5
36 70 3
36 71 1
36 72 5
36 73 4
36 74 5
36 75 3
36 76 4
36 77 3
36 78 1
36 79 4
36 80 5
36 81 5
36 82 4
36 83 5
36 84 5
36 85 1
36 86 3
36 87 3
36 88 5
36 89 4
36 90 4
36 91 5
36 92 2
36 93 5
36 94 4
36 95 4
36 96 3
36 97 1
36 98 2
36 99 3
36 100 5
37 38 1
37 39 3
37 40 1
37 41 2
37 42 1
37 43 5
37 44 1
37 45 4
37 46 5
37 47 2
37 48 1
37 49 3
37 50 3
37 51 3
37 52 4
37 53 5
37 54 2
37 55 1
37 56 1
37 57 3
37 58 4
37 59 2
37 60 1
37 61 3
37 62 1
37 63 2
37 64 5
37 65 2
37 66 3
37 67 4
37 68 4
37 69 2
37 70 3
37 71 3
37 72 1
37 73 3
37 74 1
37 75 1
37 76 3
37 77 3
37 78 1
37 79 4
37 80 3
37 81 3
37 82 5
37 83 4
37 84 4
37 85 3
37 86 5
37 87 3
37 88 4
37 89 3
37 90 1
37 91 1
37 92 2
37 93 4
37 94 2
37 95 5
37 96 2
37 97 3
37 98 1
37 99 5
37 100 2
38 39 5
38 40 3
38 41 4
38 42 5
38 43 4
38 44 1
38 45 3
38 46 1
38 47 3
38 48 5
38 49 3
38 50 4
38 51 1
38 52 3
38 53 1
38 54 5
38 55 5
38 56 4
38 57 2
38 58 3
38 59 5
38 60 3
38 61 5
38 62 4
38 63 1
38 64 3
38 65 4
38 66 5
38 67 3
38 68 1
38 69 2
38 70 5
38 71 5
38 72 1
38 73 3
38 74 1
38 75 2
38 76 1
38 77 3
38 78 2
38 79 4
38 80 5
38 81 5
38 82 2
38 83 3
38 84 2
38 85 1
38 86 2
38 87 2
38 88 3
38 89 1
38 90 3
38 91 4
38 92 4
38 93 2
38 94 5
38 95 4
38 96 1
38 97 5
38 98 5
38 99 4
38 100 2
39 40 4
39 41 4
39 42 2
39 43 3
39 44 1
39 45 1
39 46 1
39 47 1
39 48 1
39 49 2
39 50 3
39 51 2
39 52 2
39 53 4
39 54 5
39 55 5
39 56 3
39 57 4
39 58 4
39 59 5
39 60 2
39 61 3
39 62 5
39 63 1
39 64 4
39 65 2
39 66 4
39 67 3
39 68 2
39 69 1
39 70 2
39 71 3
39 72 1
39 73 5
39 74 3
39 75 3
39 76 4
39 77 3
39 78 4
39 79 5
39 80 2
39 81 4
39 82 2
39 83 5
39 84 5
39 85 3
39 86 1
39 87 1
39 88 1
39 89 1
39 90 5
39 91 1
39 92 1
39 93 3
39 94 5
39 95 4
39 96 5
39 97 2
39 98 4
39 99 4
39 100 4
40 41 5
40 42 3
40 43 4
40 44 2
40 45 1
40 46 5
40 47 3
40 48 2
40 49 3
40 50 2
40 51 5
40 52 1
40 53 5
40 54 1
40 55 2
40 56 5
40 57 4
40 58 1
40 59 1
40 60 4
40 61 4
40 62 5
40 63 2
40 64 4
40 65 4
40 66 3
40 67 2
40 68 5
40 69 4
40 70 3
40 71 2
40 72 2
40 73 4
40 74 4
40 75 1
40 76 5
40 77 2
40 78 2
40 79 4
40 80 3
40 81 5
40 82 3
40 83 2
40 84 2
40 85 2
40 86 4
40 87 2
40 88 5
40 89 5
40 90 2
40 91 3
40 92 3
40 93 4
40 94 4
40 95 5
40 96 3
40 97 5
40 98 5
40 99 1
40 100 1
41 42 2
41 43 4
41 44 3
41 45 2
41 46 5
41 47 5
41 48 3
41 49 1
41 50 3
41 51 4
41 52 5
41 53 3
41 54 5
41 55 4
41 56 2
41 57 5
41 58 5
41 59 2
41 60 2
41 61 4
41 62 5
41 63 5
41 64 3
41 65 3
41 66 1
41 67 3
41 68 1
41 69 2
41 70 2
41 71 1
41 72 2
41 73 1
41 74 3
41 75 4
41 76 1
41 77 4
41 78 3
41 79 1
41 80 3
41 81 4
41 82 1
41 83 2
41 84 5
41 85 3
41 86 1
41 87 1
41 88 4
41 89 2
41 90 2
41 91 5
41 92 2
41 93 3
41 94 2
41 95 4
41 96 3
41 97 4
41 98 4
41 99 5
41 100 4
42 43 1
42 44 3
42 45 4
42 46 5
42 47 1
42 48 4
42 49 5
42 50 5
42 51 1
42 52 1
42 53 1
42 54 3
42 55 4
42 56 2
42 57 2
42 58 1
42 59 3
42 60 2
42 61 5
42 62 3
42 63 3
42 64 3
42 65 1
42 66 5
42 67 5
42 68 3
42 69 1
42 70 3
42 71 3
42 72 3
42 73 3
42 74 3
42 75 4
42 76 1
42 77 5
42 78 3
42 79 2
42 80 4
42 81 1
42 82 4
42 83 4
42 84 1
42 85 3
42 86 2
42 87 1
42 88 5
42 89 3
42 90 1
42 91 4
42 92 1
42 93 3
42 94 3
42 95 4
42 96 3
42 97 4
42 98 3
42 99 4
42 100 3
43 44 3
43 45 3
43 46 1
43 47 2
43 48 5
43 49 2
43 50 5
43 51 1
43 52 5
43 53 5
43 54 1
43 55 3
43 56 3
43 57 2
43 58 4
43 59 2
43 60 2
43 61 4
43 62 3
43 63 4
43 64 5
43 65 5
43 66 2
43 67 4
43 68 2
43 69 3
43 70 2
43 71 3
43 72 2
43 73 5
43 74 2
43 75 1
43 76 5
43 77 5
43 78 5
43 79 5
43 80 1
43 81 2
43 82 5
43 83 5
43 84 2
43 85 3
43 86 2
43 87 1
43 88 1
43 89 2
43 90 4
43 91 5
43 92 5
43 93 3
43 94 1
43 95 5
43 96 2
43 97 1
43 98 4
43 99 1
43 100 3
44 45 5
44 46 1
44 47 3
44 48 1
44 49 5
44 50 3
44 51 3
44 52 5
44 53 5
44 54 5
44 55 1
44 56 3
44 57 2
44 58 1
44 59 3
44 60 4
44 61 3
44 62 4
44 63 2
44 64 5
44 65 4
44 66 4
44 67 3
44 68 5
44 69 1
44 70 2
44 71 3
44 72 5
44 73 3
44 74 2
44 75 2
44 76 4
44 77 5
44 78 3
44 79 2
44 80 2
44 81 4
44 82 2
44 83 4
44 84 5
44 85 3
44 86 1
44 87 5
44 88 4
44 89 5
44 90 3
44 91 3
44 92 5
44 93 5
44 94 1
44 95 4
44 96 3
44 97 2
44 98 5
44 99 1
44 100 5
45 46 4
45 47 5
45 48 4
45 49 1
45 50 4
45 51 1
45 52 1
45 53 1
45 54 3
45 55 2
45 56 5
45 57 4
45 58 5
45 59 1
45 60 2
45 61 2
45 62 1
45 63 3
45 64 5
45 65 3
45 66 4
45 67 5
45 68 2
45 69 1
45 70 1
45 71 4
45 72 3
45 73 4
45 74 3
45 75 1
45 76 3
45 77 2
45 78 5
45 79 4
45 80 4
45 81 2
45 82 5
45 83 5
45 84 1
45 85 1
45 86 1
45 87 1
45 88 1
45 89 1
45 90 5
45 91 2
45 92 3
45 93 3
45 94 1
45 95 5
45 96 3
45 97 1
45 98 5
45 99 3
45 100 2
46 47 1
46 48 5
46 49 5
46 50 3
46 51 5
46 52 1
46 53 5
46 54 5
46 55 3
46 56 5
46 57 4
46 58 3
46 59 3
46 60 4
46 61 1
46 62 2
46 63 5
46 64 3
46 65 1
46 66 1
46 67 1
46 68 2
46 69 2
46 70 2
46 71 4
46 72 3
46 73 3
46 74 4
46 75 5
46 76 4
46 77 5
46 78 4
46 79 1
46 80 3
46 81 2
46 82 4
46 83 4
46 84 4
46 85 3
46 86 3
46 87 3
46 88 2
46 89 5
46 90 2
46 91 5
46 92 3
46 93 2
46 94 4
46 95 2
46 96 5
46 97 2
46 98 5
46 99 3
46 100 4
47 48 3
47 49 1
47 50 5
47 51 3
47 52 1
47 53 2
47 54 2
47 55 1
47 56 2
47 57 2
47 58 2
47 59 4
47 60 1
47 61 4
47 62 4
47 63 1
47 64 3
47 65 3
47 66 3
47 67 1
47 68 5
47 69 3
47 70 5
47 71 5
47 72 3
47 73 3
47 74 5
47 75 2
47 76 2
47 77 1
47 78 2
47 79 4
47 80 5
47 81 5
47 82 5
47 83 5
47 84 5
47 85 2
47 86 1
47 87 5
47 88 1
47 89 1
47 90 3
47 91 1
47 92 3
47 93 5
47 94 3
47 95 3
47 96 4
47 97 5
47 98 5
47 99 5
47 100 4
48 49 4
48 50 2
48 51 2
48 52 1
48 53 2
48 54 5
48 55 2
48 56 2
48 57 2
48 58 3
48 59 4
48 60 2
48 61 2
48 62 4
48 63 3
48 64 2
48 65 1
48 66 1
48 67 3
48 68 3
48 69 3
48 70 3
48 71 4
48 72 1
48 73 3
48 74 1
48 75 1
48 76 4
48 77 4
48 78 4
48 79 1
48 80 1
48 81 5
48 82 3
48 83 2
48 84 1
48 85 2
48 86 2
48 87 2
48 88 1
48 89 3
48 90 5
48 91 2
48 92 4
48 93 4
48 94 4
48 95 1
48 96 1
48 97 1
48 98 4
48 99 2
48 100 3
49 50 3
49 51 5
49 52 4
49 53 2
49 54 3
49 55 5
49 56 3
49 57 5
49 58 5
49 59 5
49 60 2
49 61 1
49 62 2
49 63 2
49 64 3
49 65 5
49 66 1
49 67 5
49 68 2
49 69 3
49 70 5
49 71 2
49 72 1
49 73 1
49 74 2
49 75 4
49 76 5
49 77 3
49 78 3
49 79 5
49 80 5
49 81 4
49 82 4
49 83 1
49 84 4
49 85 3
49 86 3
49 87 4
49 88 2
49 89 1
49 90 2
49 91 1
49 92 5
49 93 2
49 94 1
49 95 2
49 96 3
49 97 5
49 98 2
49 99 5
49 100 4
50 51 3
50 52 1
50 53 1
50 54 2
50 55 1
50 56 2
50 57 5
50 58 4
50 59 1
50 60 1
50 61 5
50 62 5
50 63 5
50 64 2
50 65 3
50 66 2
50 67 4
50 68 1
50 69 1
50 70 5
50 71 5
50 72 2
50 73 5
50 74 4
50 75 1
50 76 1
50 77 2
50 78 1
50 79 3
50 80 2
50 81 4
50 82 3
50 83 5
50 84 1
50 85 5
50 86 5
50 87 5
50 88 1
50 89 1
50 90 1
50 91 1
50 92 3
50 93 5
50 94 4
50 95 2
50 96 5
50 97 5
50 98 2
50 99 2
50 100 2
51 52 5
51 53 5
51 54 1
51 55 2
51 56 5
51 57 2
51 58 5
51 59 4
51 60 1
51 61 5
51 62 5
51 63 2
51 64 5
51 65 4
51 66 5
51 67 5
51 68 5
51 69 2
51 70 3
51 71 2
51 72 5
51 73 4
51 74 3
51 75 4
51 76 3
51 77 4
51 78 4
51 79 3
51 80 3
51 81 3
51 82 1
51 83 5
51 84 5
51 85 2
51 86 5
51 87 3
51 88 2
51 89 2
51 90 5
51 91 2
51 92 4
51 93 4
51 94 2
51 95 2
51 96 5
51 97 2
51 98 4
51 99 3
51 100 5
52 53 3
52 54 1
52 55 5
52 56 4
52 57 5
52 58 2
52 59 1
52 60 3
52 61 5
52 62 3
52 63 4
52 64 5
52 65 5
52 66 1
52 67 5
52 68 5
52 69 5
52 70 4
52 71 1
52 72 5
52 73 3
52 74 5
52 75 2
52 76 5
52 77 5
52 78 4
52 79 2
52 80 5
52 81 1
52 82 3
52 83 5
52 84 1
52 85 3
52 86 3
52 87 2
52 88 4
52 89 2
52 90 3
52 91 1
52 92 4
52 93 4
52 94 5
52 95 3
52 96 1
52 97 2
52 98 4
52 99 3
52 100 5
53 54 1
53 55 2
53 56 1
53 57 3
53 58 1
53 59 1
53 60 5
53 61 3
53 62 4
53 63 2
53 64 4
53 65 1
53 66 1
53 67 4
53 68 1
53 69 4
53 70 1
53 71 5
53 72 1
53 73 4
53 74 2
53 75 5
53 76 2
53 77 3
53 78 5
53 79 5
53 80 4
53 81 1
53 82 4
53 83 1
53 84 3
53 85 1
53 86 3
53 87 5
53 88 4
53 89 1
53 90 1
53 91 3
53 92 1
53 93 3
53 94 2
53 95 5
53 96 5
53 97 1
53 98 5
53 99 3
53 100 2
54 55 5
54 56 4
54 57 2
54 58 4
54 59 2
54 60 1
54 61 3
54 62 1
54 63 1
54 64 4
54 65 4
54 66 4
54 67 2
54 68 1
54 69 5
54 70 5
54 71 3
54 72 2
54 73 2
54 74 4
54 75 3
54 76 4
54 77 3
54 78 4
54 79 1
54 80 3
54 81 5
54 82 1
54 83 3
54 84 4
54 85 1
54 86 4
54 87 4
54 88 2
54 89 3
54 90 5
54 91 5
54 92 3
54 93 2
54 94 4
54 95 2
54 96 3
54 97 1
54 98 4
54 99 3
54 100 1
55 56 3
55 57 4
55 58 4
55 59 5
55 60 5
55 61 4
55 62 5
55 63 4
55 64 4
55 65 2
55 66 5
55 67 2
55 68 2
55 69 4
55 70 2
55 71 3
55 72 3
55 73 2
55 74 2
55 75 1
55 76 3
55 77 5
55 78 1
55 79 5
55 80 1
55 81 3
55 82 4
55 83 5
55 84 5
55 85 4
55 86 4
55 87 2
55 88 3
55 89 3
55 90 4
55 91 3
55 92 5
55 93 5
55 94 1
55 95 4
55 96 4
55 97 4
55 98 4
55 99 3
55 100 1
56 57 3
56 58 5
56 59 4
56 60 4
56 61 1
56 62 4
56 63 2
56 64 5
56 65 4
56 66 3
56 67 4
56 68 5
56 69 3
56 70 3
56 71 3
56 72 3
56 73 3
56 74 1
56 75 3
56 76 2
56 77 1
56 78 2
56 79 3
56 80 4
56 81 4
56 82 3
56 83 2
56 84 2
56 85 2
56 86 5
56 87 2
56 88 4
56 89 4
56 90 1
56 91 4
56 92 4
56 93 5
56 94 2
56 95 2
56 96 4
56 97 5
56 98 4
56 99 1
56 100 1
57 58 2
57 59 5
57 60 2
57 61 2
57 62 2
57 63 2
57 64 4
57 65 5
57 66 1
57 67 5
57 68 2
57 69 1
57 70 3
57 71 1
57 72 4
57 73 3
57 74 5
57 75 5
57 76 4
57 77 1
57 78 5
57 79 1
57 80 2
57 81 2
57 82 5
57 83 3
57 84 4
57 85 1
57 86 4
57 87 2
57 88 5
57 89 4
57 90 4
57 91 1
57 92 3
57 93 3
57 94 2
57 95 5
57 96 3
57 97 2
57 98 1
57 99 3
57 100 3
58 59 3
58 60 2
58 61 2
58 62 3
58 63 4
58 64 2
58 65 1
58 66 4
58 67 3
58 68 4
58 69 3
58 70 1
58 71 3
58 72 5
58 73 3
58 74 5
58 75 4
58 76 5
58 77 1
58 78 5
58 79 3
58 80 2
58 81 1
58 82 3
58 83 1
58 84 4
58 85 5
58 86 1
58 87 3
58 88 5
58 89 5
58 90 1
58 91 3
58 92 4
58 93 4
58 94 3
58 95 5
58 96 2
58 97 3
58 98 2
58 99 2
58 100 4
59 60 4
59 61 2
59 62 5
59 63 1
59 64 4
59 65 3
59 66 1
59 67 1
59 68 2
59 69 2
59 70 5
59 71 3
59 72 3
59 73 1
59 74 3
59 75 4
59 76 5
59 77 5
59 78 5
59 79 4
59 80 1
59 81 1
59 82 1
59 83 4
59 84 3
59 85 3
59 86 2
59 87 5
59 88 1
59 89 2
59 90 3
59 91 3
59 92 5
59 93 1
59 94 2
59 95 4
59 96 5
59 97 5
59 98 1
59 99 2
59 100 3
60 61 1
60 62 3
60 63 5
60 64 3
60 65 1
60 66 2
60 67 3
60 68 1
60 69 1
60 70 1
60 71 2
60 72 3
60 73 4
60 74 2
60 75 2
60 76 2
60 77 1
60 78 2
60 79 5
60 80 2
60 81 3
60 82 1
60 83 5
60 84 4
60 85 5
60 86 1
60 87 4
60 88 5
60 89 2
60 90 2
60 91 3
60 92 4
60 93 1
60 94 5
60 95 2
60 96 3
60 97 2
60 98 5
60 99 4
60 100 5
61 62 1
61 63 4
61 64 4
61 65 5
61 66 5
61 67 3
61 68 2
61 69 5
61 70 3
61 71 3
61 72 5
61 73 1
61 74 2
61 75 2
61 76 3
61 77 3
61 78 5
61 79 5
61 80 2
61 81 1
61 82 1
61 83 4
61 84 2
61 85 1
61 86 5
61 87 3
61 88 5
61 89 2
61 90 4
61 91 4
61 92 1
61 93 3
61 94 5
61 95 3
61 96 2
61 97 4
61 98 5
61 99 4
61 100 4
62 63 4
62 64 2
62 65 4
62 66 5
62 67 2
62 68 1
62 69 1
62 70 2
62 71 2
62 72 5
62 73 5
62 74 1
62 75 5
62 76 2
62 77 3
62 78 5
62 79 4
62 80 4
62 81 1
62 82 1
62 83 4
62 84 3
62 85 3
62 86 1
62 87 5
62 88 3
62 89 2
62 90 3
62 91 2
62 92 4
62 93 4
62 94 3
62 95 1
62 96 4
62 97 4
62 98 3
62 99 2
62 100 2
63 64 3
63 65 3
63 66 4
63 67 4
63 68 2
63 69 1
63 70 5
63 71 5
63 72 4
63 73 2
63 74 2
63 75 5
63 76 4
63 77 3
63 78 3
63 79 5
63 80 2
63 81 3
63 82 4
63 83 4
63 84 1
63 85 3
63 86 4
63 87 3
63 88 4
63 89 3
63 90 3
63 91 4
63 92 4
63 93 3
63 94 3
63 95 3
63 96 4
63 97 1
63 98 1
63 99 1
63 100 2
64 65 4
64 66 2
64 67 5
64 68 2
64 69 1
64 70 1
64 71 3
64 72 5
64 73 5
64 74 4
64 75 3
64 76 2
64 77 5
64 78 1
64 79 4
64 80 3
64 81 5
64 82 5
64 83 5
64 84 2
64 85 2
64 86 3
64 87 2
64 88 1
64 89 3
64 90 1
64 91 1
64 92 4
64 93 1
64 94 2
64 95 1
64 96 5
64 97 3
64 98 3
64 99 1
64 100 3
65 66 1
65 67 3
65 68 2
65 69 3
65 70 1
65 71 3
65 72 3
65 73 2
65 74 3
65 75 1
65 76 4
65 77 4
65 78 4
65 79 3
65 80 3
65 81 4
65 82 2
65 83 4
65 84 2
65 85 2
65 86 1
65 87 4
65 88 4
65 89 1
65 90 1
65 91 2
65 92 1
65 93 4
65 94 3
65 95 5
65 96 5
65 97 4
65 98 2
65 99 2
65 100 4
66 67 3
66 68 2
66 69 1
66 70 2
66 71 1
66 72 4
66 73 5
66 74 5
66 75 1
66 76 4
66 77 4
66 78 1
66 79 5
66 80 5
66 81 4
66 82 5
66 83 4
66 84 4
66 85 2
66 86 5
66 87 1
66 88 5
66 89 3
66 90 4
66 91 5
66 92 3
66 93 2
66 94 3
66 95 3
66 96 1
66 97 5
66 98 1
66 99 3
66 100 3
67 68 2
67 69 3
67 70 1
67 71 5
67 72 2
67 73 2
67 74 2
67 75 2
67 76 4
67 77 3
67 78 4
67 79 2
67 80 4
67 81 3
67 82 2
67 83 3
67 84 5
67 85 4
67 86 1
67 87 4
67 88 5
67 89 4
67 90 4
67 91 3
67 92 2
67 93 3
67 94 4
67 95 4
67 96 3
67 97 1
67 98 1
67 99 3
67 100 5
68 69 1
68 70 5
68 71 3
68 72 1
68 73 5
68 74 4
68 75 5
68 76 3
68 77 4
68 78 1
68 79 3
68 80 5
68 81 1
68 82 2
68 83 4
68 84 3
68 85 4
68 86 3
68 87 4
68 88 4
68 89 3
68 90 2
68 91 4
68 92 5
68 93 2
68 94 4
68 95 2
68 96 4
68 97 4
68 98 5
68 99 5
68 100 5
69 70 2
69 71 1
69 72 3
69 73 3
69 74 5
69 75 4
69 76 3
69 77 2
69 78 5
69 79 5
69 80 5
69 81 1
69 82 3
69 83 3
69 84 3
69 85 4
69 86 3
69 87 5
69 88 3
69 89 4
69 90 3
69 91 1
69 92 3
69 93 1
69 94 4
69 95 3
69 96 3
69 97 2
69 98 4
69 99 5
69 100 4
70 71 4
70 72 4
70 73 5
70 74 5
70 75 4
70 76 5
70 77 4
70 78 1
70 79 3
70 80 1
70 81 5
70 82 3
70 83 4
70 84 5
70 85 2
70 86 5
70 87 3
70 88 2
70 89 3
70 90 4
70 91 1
70 92 5
70 93 2
70 94 1
70 95 3
70 96 1
70 97 1
70 98 2
70 99 5
70 100 5
71 72 5
71 73 2
71 74 5
71 75 3
71 76 1
71 77 5
71 78 2
71 79 4
71 80 2
71 81 4
71 82 4
71 83 1
71 84 3
71 85 3
71 86 3
71 87 1
71 88 1
71 89 1
71 90 4
71 91 5
71 92 4
71 93 1
71 94 1
71 95 3
71 96 3
71 97 2
71 98 3
71 99 3
71 100 1
72 73 5
72 74 2
72 75 5
72 76 4
72 77 5
72 78 1
72 79 1
72 80 2
72 81 2
72 82 3
72 83 4
72 84 1
72 85 2
72 86 3
72 87 1
72 88 1
72 89 2
72 90 4
72 91 2
72 92 2
72 93 2
72 94 2
72 95 2
72 96 5
72 97 1
72 98 5
72 99 2
72 100 2
73 74 5
73 75 2
73 76 5
73 77 5
73 78 2
73 79 5
73 80 4
73 81 1
73 82 4
73 83 2
73 84 4
73 85 3
73 86 3
73 87 3
73 88 1
73 89 4
73 90 1
73 91 1
73 92 1
73 93 2
73 94 3
73 95 1
73 96 5
73 97 3
73 98 2
73 99 3
73 100 2
74 75 1
74 76 3
74 77 5
74 78 1
74 79 2
74 80 5
74 81 3
74 82 2
74 83 4
74 84 4
74 85 4
74 86 3
74 87 1
74 88 3
74 89 3
74 90 2
74 91 2
74 92 5
74 93 2
74 94 4
74 95 2
74 96 1
74 97 1
74 98 1
74 99 1
74 100 5
75 76 4
75 77 4
75 78 3
75 79 5
75 80 3
75 81 1
75 82 1
75 83 4
75 84 2
75 85 3
75 86 2
75 87 4
75 88 3
75 89 1
75 90 5
75 91 2
75 92 1
75 93 1
75 94 4
75 95 4
75 96 4
75 97 3
75 98 2
75 99 5
75 100 3
76 77 2
76 78 5
76 79 2
76 80 1
76 81 3
76 82 2
76 83 3
76 84 4
76 85 1
76 86 2
76 87 1
76 88 4
76 89 5
76 90 1
76 91 3
76 92 3
76 93 4
76 94 2
76 95 5
76 96 3
76 97 2
76 98 1
76 99 1
76 100 4
77 78 5
77 79 5
77 80 4
77 81 4
77 82 3
77 83 4
77 84 4
77 85 2
77 86 1
77 87 2
77 88 1
77 89 4
77 90 3
77 91 2
77 92 1
77 93 2
77 94 5
77 95 2
77 96 5
77 97 2
77 98 5
77 99 5
77 100 4
78 79 4
78 80 3
78 81 1
78 82 4
78 83 1
78 84 5
78 85 1
78 86 1
78 87 4
78 88 3
78 89 2
78 90 2
78 91 5
78 92 2
78 93 4
78 94 2
78 95 4
78 96 1
78 97 2
78 98 3
78 99 5
78 100 3
79 80 4
79 81 5
79 82 3
79 83 4
79 84 1
79 85 2
79 86 2
79 87 1
79 88 4
79 89 5
79 90 1
79 91 5
79 92 2
79 93 4
79 94 4
79 95 1
79 96 2
79 97 4
79 98 3
79 99 1
79 100 5
80 81 1
80 82 3
80 83 3
80 84 1
80 85 3
80 86 2
80 87 2
80 88 1
80 89 2
80 90 1
80 91 4
80 92 1
80 93 2
80 94 3
80 95 4
80 96 2
80 97 2
80 98 5
80 99 2
80 100 1
81 82 1
81 83 3
81 84 5
81 85 2
81 86 3
81 87 1
81 88 3
81 89 3
81 90 4
81 91 1
81 92 2
81 93 3
81 94 2
81 95 5
81 96 2
81 97 3
81 98 2
81 99 2
81 100 4
82 83 5
82 84 2
82 85 4
82 86 1
82 87 3
82 88 3
82 89 3
82 90 1
82 91 4
82 92 3
82 93 1
82 94 4
82 95 1
82 96 1
82 97 1
82 98 2
82 99 3
82 100 5
83 84 2
83 85 4
83 86 1
83 87 3
83 88 4
83 89 3
83 90 4
83 91 3
83 92 2
83 93 1
83 94 1
83 95 5
83 96 2
83 97 5
83 98 3
83 99 2
83 100 4
84 85 3
84 86 1
84 87 1
84 88 4
84 89 3
84 90 4
84 91 2
84 92 2
84 93 4
84 94 5
84 95 1
84 96 1
84 97 1
84 98 3
84 99 5
84 100 1
85 86 4
85 87 1
85 88 4
85 89 3
85 90 3
85 91 1
85 92 2
85 93 2
85 94 2
85 95 1
85 96 3
85 97 2
85 98 1
85 99 1
85 100 2
86 87 3
86 88 4
86 89 4
86 90 2
86 91 3
86 92 2
86 93 5
86 94 1
86 95 1
86 96 1
86 97 2
86 98 1
86 99 3
86 100 3
87 88 4
87 89 4
87 90 5
87 91 5
87 92 2
87 93 5
87 94 2
87 95 4
87 96 3
87 97 1
87 98 4
87 99 2
87 100 5
88 89 5
88 90 2
88 91 5
88 92 2
88 93 2
88 94 5
88 95 1
88 96 3
88 97 1
88 98 5
88 99 5
88 100 2
89 90 5
89 91 4
89 92 2
89 93 2
89 94 1
89 95 3
89 96 1
89 97 5
89 98 5
89 99 5
89 100 1
90 91 5
90 92 1
90 93 4
90 94 1
90 95 5
90 96 5
90 97 3
90 98 4
90 99 4
90 100 2
91 92 2
91 93 4
91 94 5
91 95 4
91 96 3
91 97 5
91 98 2
91 99 2
91 100 1
92 93 5
92 94 5
92 95 2
92 96 1
92 97 1
92 98 1
92 99 5
92 100 1
93 94 5
93 95 4
93 96 5
93 97 4
93 98 2
93 99 3
93 100 3
94 95 4
94 96 3
94 97 5
94 98 2
94 99 5
94 100 4
95 96 3
95 97 5
95 98 2
95 99 5
95 100 2
96 97 3
96 98 1
96 99 2
96 100 2
97 98 4
97 99 1
97 100 5
98 99 2
98 100 3
99 100 4
